CMD:
./solvers/bin/cadical --plain --no-reduce -t 1600 ./data/cnfs//texasparsesysp3/texasparsesysp3.44.cnf

c --- [ banner ] -------------------------------------------------------------
c 
c CaDiCaL SAT Solver
c Copyright (c) 2016-2024
c A. Biere, M. Fleury, N. Froleyks, K. Fazekas, F. Pollitt, T. Faller
c JKU Linz, University of Freiburg, TU Wien
c 
c Version 2.1.3 5296d3d2a9bf48c154ab2acb5e44625776d821bf
c g++ (Gentoo 12.3.1_p20230526 p2) 12.3.1 20230526 -Wall -Wextra -O3 -DNDEBUG
c Sat Aug 9 07:26:21 PDT 2025 Linux cedar2.int.cedar.computecanada.ca 5.14.0-362.24.2.el9_3.x86_64 x86_64
c 
c --- [ limit ] --------------------------------------------------------------
c 
c setting time limit to 1600 seconds real time (due to '-t 1600')
c 
c --- [ parsing input ] ------------------------------------------------------
c 
c reading DIMACS file from './data/cnfs//texasparsesysp3/texasparsesysp3.44.cnf'
c opening file to read './data/cnfs//texasparsesysp3/texasparsesysp3.44.cnf'
c found 'p cnf 534507 1601547' header
c parsed 1601547 clauses in 0.32 seconds process time
c 
c --- [ options ] ------------------------------------------------------------
c 
c   --compact=false                (different from default 'true')
c   --decompose=false              (different from default 'true')
c   --deduplicate=false            (different from default 'true')
c   --elim=false                   (different from default 'true')
c   --probe=false                  (different from default 'true')
c   --reduce=false                 (different from default 'true')
c   --subsume=false                (different from default 'true')
c   --ternary=false                (different from default 'true')
c   --transred=false               (different from default 'true')
c   --vivify=false                 (different from default 'true')
c 
c --- [ solving ] ------------------------------------------------------------
c 
c time measured in process time since initialization
c 
c  seconds   reductions  redundant   irredundant
c          MB    restarts       trail        variables
c           level   conflicts       glue           remaining
c 
c *  0.32 245  0 0   0    0    0  0% 0 1535265 495197 93%
c {  0.33 246  0 0   0    0    0  0% 0 1535265 495197 93%
c i  0.33 246 100 0   0   14    7  8% 2 1535265 493619 92%
c i  0.45 252 647 0   0   71   59 46% 1 1535265 489161 92%
c i  0.45 252 684 0   0   76   63 49% 1 1535265 484192 91%
c i  0.47 252 636 0   5  110   94 50% 1 1535265 484010 91%
c i  0.47 252 584 0   7  119  102 48% 1 1535265 483791 91%
c i  0.47 252 578 0   8  120  102 47% 1 1535265 475363 89%
c i  0.58 252 466 0  13  208  187 56% 1 1535265 475324 89%
c i  0.59 252 469 0  13  210  188 57% 1 1535265 475281 89%
c i  0.59 252 471 0  13  214  190 58% 1 1535265 474871 89%
c }  0.67 253 459 0  13  221  197 58% 1 1535265 474871 89%
c 1  0.67 253 459 0  13  221  197 58% 1 1535265 474871 89%
c 
c --- [ result ] -------------------------------------------------------------
c 
s SATISFIABLE
v 1 -2 -3 -4 -5 -6 -7 -8 -9 -10 -11 -12 -13 -14 -15 -16 -17 -18 -19 -20 -21
v -22 -23 -24 -25 -26 -27 -28 -29 -30 -31 -32 -33 -34 -35 -36 -37 -38 -39 -40
v -41 -42 -43 -44 -45 -46 -47 -48 -49 -50 -51 -52 -53 -54 -55 -56 -57 -58 -59
v -60 -61 -62 -63 -64 -65 -66 -67 -68 -69 -70 -71 -72 -73 -74 -75 -76 -77 -78
v -79 -80 -81 -82 -83 -84 -85 -86 -87 -88 -89 -90 -91 -92 -93 -94 -95 -96 -97
v -98 -99 -100 -101 -102 -103 -104 -105 -106 -107 -108 -109 -110 -111 -112
v -113 -114 -115 -116 -117 -118 -119 -120 -121 -122 -123 -124 -125 -126 -127
v -128 -129 -130 -131 -132 -133 -134 -135 -136 -137 -138 -139 -140 -141 -142
v -143 -144 -145 -146 -147 -148 -149 -150 -151 -152 -153 -154 -155 -156 -157
v -158 -159 -160 -161 -162 -163 -164 -165 -166 -167 -168 -169 -170 -171 -172
v -173 -174 -175 -176 -177 -178 -179 -180 -181 -182 -183 -184 -185 -186 -187
v -188 -189 -190 -191 -192 -193 -194 -195 -196 -197 -198 -199 -200 -201 -202
v -203 -204 -205 -206 -207 -208 -209 -210 -211 -212 -213 -214 -215 -216 -217
v -218 -219 -220 -221 -222 -223 -224 -225 -226 -227 -228 -229 -230 -231 -232
v -233 -234 -235 -236 -237 -238 -239 -240 -241 -242 -243 -244 -245 -246 -247
v -248 -249 -250 -251 -252 -253 -254 -255 -256 -257 -258 -259 -260 -261 -262
v -263 -264 -265 -266 -267 -268 -269 -270 -271 -272 -273 -274 -275 -276 -277
v -278 -279 -280 -281 -282 -283 -284 -285 -286 -287 -288 -289 -290 -291 -292
v -293 -294 -295 -296 -297 -298 -299 -300 -301 -302 -303 -304 -305 -306 -307
v -308 -309 -310 -311 -312 -313 -314 -315 -316 -317 -318 -319 -320 -321 322
v 323 -324 -325 -326 -327 -328 -329 -330 -331 -332 -333 334 335 -336 -337 338
v -339 340 -341 -342 343 -344 345 -346 -347 348 -349 350 -351 -352 353 -354
v 355 -356 -357 358 -359 360 -361 -362 363 -364 -365 -366 -367 368 -369 -370
v -371 372 -373 374 -375 -376 -377 -378 -379 -380 -381 -382 -383 -384 -385
v -386 -387 -388 -389 -390 -391 -392 -393 -394 -395 -396 -397 -398 -399 -400
v -401 -402 -403 -404 -405 406 -407 -408 409 -410 411 -412 -413 414 -415 -416
v -417 -418 419 -420 -421 -422 423 -424 425 -426 427 428 429 430 431 432 -433
v -434 -435 -436 437 -438 -439 -440 -441 -442 -443 444 445 -446 447 -448 449
v -450 451 -452 453 -454 455 -456 -457 -458 459 -460 -461 -462 463 -464 465
v -466 -467 468 -469 470 -471 -472 473 -474 -475 -476 -477 478 -479 -480 -481
v -482 483 -484 485 486 -487 -488 -489 -490 491 -492 493 -494 -495 496 -497
v 498 -499 -500 501 -502 -503 -504 -505 506 -507 -508 -509 -510 511 -512 -513
v 514 -515 516 -517 -518 519 -520 521 -522 -523 524 -525 -526 -527 -528 529
v -530 -531 -532 -533 534 -535 -536 537 -538 539 -540 -541 542 -543 544 -545
v -546 547 -548 -549 -550 -551 552 -553 -554 -555 -556 557 -558 -559 560 -561
v 562 -563 -564 565 -566 567 -568 -569 570 -571 -572 -573 -574 575 -576 -577
v -578 -579 580 -581 -582 583 -584 585 -586 -587 588 -589 590 -591 -592 593
... skipped 53678 lines ...
v -533967 533968 -533969 533970 -533971 -533972 533973 533974 -533975 -533976
v 533977 533978 -533979 -533980 533981 533982 -533983 -533984 -533985 -533986
v -533987 -533988 533989 -533990 533991 -533992 -533993 -533994 533995 -533996
v -533997 -533998 533999 -534000 -534001 -534002 534003 -534004 -534005
v -534006 534007 -534008 -534009 534010 534011 534012 534013 -534014 534015
v -534016 -534017 534018 -534019 -534020 -534021 534022 -534023 -534024
v -534025 534026 -534027 -534028 -534029 534030 -534031 -534032 534033 534034
v 534035 534036 -534037 534038 -534039 -534040 534041 -534042 -534043 -534044
v 534045 -534046 -534047 -534048 534049 -534050 -534051 -534052 534053 -534054
v -534055 534056 534057 534058 534059 -534060 534061 -534062 -534063 534064
v -534065 -534066 -534067 534068 -534069 -534070 -534071 534072 -534073
v -534074 -534075 534076 -534077 -534078 534079 534080 534081 534082 -534083
v 534084 -534085 -534086 534087 -534088 -534089 -534090 534091 -534092 -534093
v -534094 534095 -534096 -534097 -534098 534099 -534100 -534101 534102 534103
v 534104 534105 -534106 534107 -534108 -534109 534110 -534111 -534112 -534113
v 534114 -534115 -534116 -534117 534118 -534119 -534120 -534121 534122 -534123
v -534124 534125 534126 534127 534128 -534129 534130 -534131 -534132 534133
v -534134 -534135 -534136 534137 -534138 -534139 -534140 534141 -534142
v -534143 -534144 534145 -534146 -534147 534148 534149 534150 534151 -534152
v 534153 -534154 -534155 534156 -534157 -534158 -534159 534160 -534161 -534162
v -534163 534164 -534165 -534166 -534167 534168 -534169 -534170 534171 534172
v 534173 534174 -534175 534176 -534177 -534178 -534179 534180 -534181 534182
v -534183 -534184 -534185 534186 -534187 -534188 -534189 -534190 534191
v -534192 534193 534194 534195 -534196 534197 -534198 -534199 534200 -534201
v -534202 -534203 534204 -534205 -534206 -534207 -534208 534209 -534210 534211
v 534212 534213 -534214 534215 -534216 -534217 534218 -534219 -534220 -534221
v 534222 -534223 -534224 -534225 -534226 534227 -534228 534229 534230 534231
v -534232 534233 -534234 -534235 534236 -534237 -534238 -534239 534240 -534241
v -534242 -534243 -534244 534245 -534246 534247 534248 534249 -534250 534251
v -534252 -534253 534254 -534255 -534256 -534257 534258 -534259 -534260
v -534261 -534262 534263 -534264 534265 534266 534267 -534268 534269 -534270
v -534271 534272 -534273 -534274 -534275 534276 -534277 -534278 -534279
v -534280 534281 -534282 534283 534284 534285 -534286 534287 -534288 -534289
v 534290 -534291 -534292 -534293 534294 -534295 -534296 -534297 -534298 534299
v -534300 534301 534302 534303 -534304 534305 -534306 -534307 534308 -534309
v -534310 -534311 534312 -534313 -534314 -534315 -534316 534317 -534318 534319
v 534320 534321 -534322 534323 -534324 -534325 534326 -534327 -534328 -534329
v 534330 -534331 -534332 -534333 534334 -534335 -534336 -534337 -534338 534339
v -534340 534341 534342 534343 534344 -534345 534346 -534347 -534348 534349
v -534350 -534351 -534352 534353 -534354 -534355 -534356 534357 -534358
v -534359 -534360 -534361 534362 -534363 534364 534365 534366 534367 -534368
v 534369 -534370 -534371 534372 -534373 -534374 -534375 534376 -534377 -534378
v -534379 534380 -534381 -534382 -534383 -534384 534385 -534386 534387 534388
v 534389 534390 -534391 534392 -534393 -534394 534395 -534396 -534397 -534398
v 534399 -534400 -534401 -534402 534403 -534404 -534405 -534406 -534407 534408
v -534409 534410 534411 534412 534413 -534414 534415 -534416 -534417 534418
v -534419 -534420 -534421 534422 -534423 -534424 -534425 534426 -534427
v -534428 -534429 -534430 534431 -534432 534433 534434 534435 534436 -534437
v 534438 -534439 -534440 534441 -534442 -534443 -534444 534445 -534446 -534447
v -534448 534449 -534450 -534451 -534452 -534453 534454 -534455 534456 534457
v 534458 534459 -534460 534461 -534462 -534463 534464 -534465 -534466 -534467
v 534468 -534469 -534470 -534471 534472 -534473 -534474 -534475 -534476 534477
v -534478 534479 534480 534481 534482 -534483 534484 -534485 -534486 534487
v -534488 -534489 -534490 534491 -534492 -534493 -534494 534495 -534496
v -534497 -534498 -534499 534500 -534501 534502 534503 534504 534505 534506
v -534507 0
c 
c --- [ run-time profiling ] -------------------------------------------------
c 
c process time taken by individual solving procedures
c (percentage relative to process time for solving)
c 
c         0.34   99.96% search
c         0.34   98.29% unstable
c         0.32   93.37% parse
c         0.01    1.65% lucky
c         0.00    0.00% simplify
c   =================================
c         0.35   49.51% solve
c 
c last line shows process time for solving
c (percentage relative to total process time)
c 
c --- [ statistics ] ---------------------------------------------------------
c 
c chronological:               172        77.83 %  of conflicts
c conflicts:                   221       640.46    per second
c decisions:                  3396      9841.65    per second
c fixed:                     59636        11.16 %  of all variables
c learned:                     207        93.67 %  per conflict
c learned_lits:                705       100.00 %  learned literals
c minimized:                     0         0.00 %  learned literals
c shrunken:                     37         5.25 %  learned literals
c minishrunken:                  6         0.85 %  learned literals
c otfs:                          4         1.81 %  of conflict
c propagations:            2230315         6.46 M  per second
c restarts:                     13        17.00    interval
c strengthened:                  4         0.00 %  of all clauses
c 
c seconds are measured in process time for solving
c 
c --- [ resources ] ----------------------------------------------------------
c 
c total process time since initialization:         0.70    seconds
c total real time since initialization:            0.71    seconds
c maximum resident set size of process:          251.14    MB
c 
c --- [ shutting down ] ------------------------------------------------------
c 
c exit 10
